p td 22 171
2 1
3 1
3 2
4 3
4 1
5 3
5 2
5 4
6 1
6 3
6 4
6 5
6 2
7 5
7 6
7 2
7 4
7 3
7 1
8 6
8 7
8 5
8 1
8 2
9 5
9 7
9 3
9 1
9 4
9 2
9 6
10 3
10 2
10 9
10 4
10 1
10 5
10 6
10 8
10 7
11 6
11 4
11 9
11 7
11 3
11 2
11 8
11 1
12 9
12 11
12 10
12 2
12 5
12 7
12 6
12 4
13 11
13 7
13 4
13 6
13 2
13 3
13 12
13 5
13 10
14 10
14 6
14 12
14 8
14 13
14 3
14 9
15 10
15 14
15 1
15 5
15 4
15 9
15 2
15 8
15 13
15 3
16 3
16 8
16 7
16 15
16 2
16 1
16 14
16 6
16 4
16 11
16 5
16 12
17 12
17 1
17 14
17 8
17 16
17 3
17 15
17 7
17 6
17 11
17 10
18 9
18 17
18 5
18 2
18 12
18 11
18 1
18 7
18 16
18 10
18 4
19 7
19 11
19 8
19 13
19 16
19 10
19 5
19 18
19 4
19 2
19 15
19 1
20 2
20 5
20 15
20 9
20 13
20 8
20 17
20 16
20 3
20 7
20 14
20 19
20 18
20 12
20 10
21 8
21 11
21 3
21 5
21 18
21 15
21 9
21 19
21 12
21 4
21 17
21 7
22 3
22 14
22 19
22 13
22 20
22 7
22 17
22 4
22 10
22 11
22 9
22 18
22 16
22 12
22 6
22 15
